 
Minimize 
 Obj: -75 PBOSORD0 -75 PBOSORD1 -75 PBOSORD2 -75 PBOSORD3 -75 PBOSORD4 -27 PBOSLGA0 
      -27 PBOSLGA1 -27 PBOSLGA2 -27 PBOSLGA3 -53 PBOSCLE0 -53 PBOSCLE1 -53 PBOSCLE2 
      -53 PBOSCLE3 -75 PORDBOS0 -75 PORDBOS1 -75 PORDBOS2 -75 PORDBOS3 -75 PORDBOS4 
      -68 PORDLGA0 -68 PORDLGA1 -68 PORDLGA2 -68 PORDLGA3 -35 PORDCLE0 -35 PORDCLE1 
      -35 PORDCLE2 -35 PORDCLE3 -27 PLGABOS0 -27 PLGABOS1 -27 PLGABOS2 -27 PLGABOS3 
      -27 PLGABOS4 -27 PLGABOS5 -68 PLGAORD0 -68 PLGAORD1 -68 PLGAORD2 -68 PLGAORD3 
      -37 PLGACLE0 -37 PLGACLE1 -37 PLGACLE2 -53 PCLEBOS0 -53 PCLEBOS1 -53 PCLEBOS2 
      -53 PCLEBOS3 -53 PCLEBOS4 -35 PCLEORD0 -35 PCLEORD1 -35 PCLEORD2 -35 PCLEORD3 
      -35 PCLEORD4 -37 PCLELGA0 -37 PCLELGA1 -37 PCLELGA2 -37 PCLELGA3 -750 BBOSORD0 -750 BBOSORD1 
      -53 BBOSCLE0 -53 BBOSCLE1 -75 BORDBOS0 -75 CBOSORD0 -75 CBOSORD1 -75 CBOSORD2 -75 CBOSORD3 
      -75 CBOSORD4 -53 CBOSCLE0 -53 CBOSCLE1 -53 CBOSCLE2 -53 CBOSCLE3 -75 CORDBOS0 -75 CORDBOS1 
      -75 CORDBOS2 -75 CORDBOS3 -75 CORDBOS4 -68 CORDLGA0 -68 CORDLGA1 -68 CORDLGA2 -68 CORDLGA3 
      -68 CLGAORD0 -68 CLGAORD1 -68 CLGAORD2 -68 CLGAORD3 -37 CLGACLE0 -37 CLGACLE1 -37 CLGACLE2 
      -370 CCLELGA0 -370 CCLELGA1 -370 CCLELGA2 -370 CCLELGA3 +650 GRDTIMO1 -50 GRDTIMN1 +275 GRDTIMO2 
      -2889 GRDTIMN2 -3611 GRDTIMN3 -1333 GRDTIMN4 +1000 N1003AC1 +2000 N1003AC2 +3000 N1003AC3 
      +4000 N1003AC4 +404337 N1005AC1 +160964 N1005AC2 +193119 N1005AC3 +134618 N1005AC4 +110000 N1011AC1 
      +120000 N1011AC2 +130000 N1011AC3 +234647 N1011AC4 +236783 N1013AC2 +190292 N1013AC4 +136416 N1015AC2 
      +114401 N1015AC4 +164736 N1017AC2 +133312 N1017AC4 +255381 N1019AC2 +214431 N1019AC4 +312679 N1021AC1 
      +118965 N1021AC2 +142472 N1021AC3 +100030 N1021AC4 +312679 N1002AC1 +118965 N1002AC2 +142472 N1002AC3 
      +100030 N1002AC4 +164736 N1004AC2 +133312 N1004AC4 +717016 N1006AC1 +279929 N1006AC2 +335591 N1006AC3 
      +234647 N1006AC4 +236783 N1008AC2 +190292 N1008AC4 +327428 N1010AC2 +271411 N1010AC4 +136416 N1012AC2 
      +114401 N1012AC4 +208463 N1014AC2 +171382 N1014AC4 +607357 N1100AC2 +506059 N1100AC4 +516712 N1102AC2 
      +424939 N1102AC4 +72047 N1200AC2 +56980 N1200AC4 +72047 N1201AC2 +56980 N1201AC4 
Subject to 
 REVENUES: +75 PBOSORD0 +75 PBOSORD1 +75 PBOSORD2 +75 PBOSORD3 +75 PBOSORD4 +27 PBOSLGA0 
  +27 PBOSLGA1 +27 PBOSLGA2 +27 PBOSLGA3 +53 PBOSCLE0 +53 PBOSCLE1 +53 PBOSCLE2 +53 PBOSCLE3 
  +75 PORDBOS0 +75 PORDBOS1 +75 PORDBOS2 +75 PORDBOS3 +75 PORDBOS4 +68 PORDLGA0 +68 PORDLGA1 
  +68 PORDLGA2 +68 PORDLGA3 +35 PORDCLE0 +35 PORDCLE1 +35 PORDCLE2 +35 PORDCLE3 +27 PLGABOS0 
  +27 PLGABOS1 +27 PLGABOS2 +27 PLGABOS3 +27 PLGABOS4 +27 PLGABOS5 +68 PLGAORD0 +68 PLGAORD1 
  +68 PLGAORD2 +68 PLGAORD3 +37 PLGACLE0 +37 PLGACLE1 +37 PLGACLE2 +53 PCLEBOS0 +53 PCLEBOS1 
  +53 PCLEBOS2 +53 PCLEBOS3 +53 PCLEBOS4 +35 PCLEORD0 +35 PCLEORD1 +35 PCLEORD2 +35 PCLEORD3 
  +35 PCLEORD4 +37 PCLELGA0 +37 PCLELGA1 +37 PCLELGA2 +37 PCLELGA3 +750 BBOSORD0 +750 BBOSORD1 
  +53 BBOSCLE0 +53 BBOSCLE1 +75 BORDBOS0 +75 CBOSORD0 +75 CBOSORD1 +75 CBOSORD2 +75 CBOSORD3 
  +75 CBOSORD4 +53 CBOSCLE0 +53 CBOSCLE1 +53 CBOSCLE2 +53 CBOSCLE3 +75 CORDBOS0 +75 CORDBOS1 
  +75 CORDBOS2 +75 CORDBOS3 +75 CORDBOS4 +68 CORDLGA0 +68 CORDLGA1 +68 CORDLGA2 +68 CORDLGA3 
  +68 CLGAORD0 +68 CLGAORD1 +68 CLGAORD2 +68 CLGAORD3 +37 CLGACLE0 +37 CLGACLE1 +37 CLGACLE2 
  +37 CCLELGA0 +37 CCLELGA1 +37 CCLELGA2 +37 CCLELGA3 >= +0 
 ACOCOSTS: +65000 GRDTIMO1 -5000 GRDTIMN1 +27500 GRDTIMO2 -2889 GRDTIMN2 -3611 GRDTIMN3 -1333 GRDTIMN4 
  +1000 N1003AC1 +2000 N1003AC2 +3000 N1003AC3 +4000 N1003AC4 +404337 N1005AC1 +160964 N1005AC2 +193119 N1005AC3 
  +134618 N1005AC4 +110000 N1011AC1 +120000 N1011AC2 +130000 N1011AC3 +234647 N1011AC4 +236783 N1013AC2 +190292 N1013AC4 
  +136416 N1015AC2 +114401 N1015AC4 +164736 N1017AC2 +133312 N1017AC4 +255381 N1019AC2 +214431 N1019AC4 
  +312679 N1021AC1 +118965 N1021AC2 +142472 N1021AC3 +100030 N1021AC4 +312679 N1002AC1 +118965 N1002AC2 
  +142472 N1002AC3 +100030 N1002AC4 +164736 N1004AC2 +133312 N1004AC4 +717016 N1006AC1 +279929 N1006AC2 
  +335591 N1006AC3 +234647 N1006AC4 +236783 N1008AC2 +190292 N1008AC4 +327428 N1010AC2 +271411 N1010AC4 
  +136416 N1012AC2 +114401 N1012AC4 +208463 N1014AC2 +171382 N1014AC4 +607357 N1100AC2 +506059 N1100AC4 
  +516712 N1102AC2 +424939 N1102AC4 +72047 N1200AC2 +56980 N1200AC4 +72047 N1201AC2 +56980 N1201AC4 
  >= +0 
 FUELAVAL: +798429 N1003AC1 +251914 N1003AC2 +315178 N1003AC3 +199337 N1003AC4 +583404 N1005AC1 +182258 N1005AC2 
  +227351 N1005AC3 +141795 N1005AC4 +991398 N1011AC1 +307692 N1011AC2 +383055 N1011AC3 +236649 N1011AC4 
  +316965 N1013AC2 +244309 N1013AC4 +149045 N1015AC2 +114359 N1015AC4 +221183 N1017AC2 +173951 N1017AC4 
  +274480 N1019AC2 +209214 N1019AC4 +407993 N1021AC1 +125435 N1021AC2 +155704 N1021AC3 +94855 N1021AC4 
  +407993 N1002AC1 +125435 N1002AC2 +155704 N1002AC3 +94855 N1002AC4 +221183 N1004AC2 +173951 N1004AC4 
  +991398 N1006AC1 +307692 N1006AC2 +383055 N1006AC3 +236649 N1006AC4 +316965 N1008AC2 +244309 N1008AC4 
  +370262 N1010AC2 +279573 N1010AC4 +149045 N1012AC2 +114359 N1012AC4 +244827 N1014AC2 +184718 N1014AC4 
  +677953 N1100AC2 +516223 N1100AC4 +624657 N1102AC2 +480959 N1102AC4 +95782 N1200AC2 +70359 N1200AC4 
  +95782 N1201AC2 +70359 N1201AC4 <= +10000000000 
 SYSTDEPT: +1 N1003AC1 +1 N1003AC2 +1 N1003AC3 +1 N1003AC4 +1 N1005AC1 +1 N1005AC2 +1 N1005AC3 +1 N1005AC4 
  +2 N1011AC1 +2 N1011AC2 +2 N1011AC3 +2 N1011AC4 +2 N1013AC2 +2 N1013AC4 +1 N1015AC2 +1 N1015AC4 +1 N1017AC2 
  +1 N1017AC4 +2 N1019AC2 +2 N1019AC4 +1 N1021AC1 +1 N1021AC2 +1 N1021AC3 +1 N1021AC4 +1 N1002AC1 +1 N1002AC2 
  +1 N1002AC3 +1 N1002AC4 +1 N1004AC2 +1 N1004AC4 +2 N1006AC1 +2 N1006AC2 +2 N1006AC3 +2 N1006AC4 +2 N1008AC2 
  +2 N1008AC4 +3 N1010AC2 +3 N1010AC4 +1 N1012AC2 +1 N1012AC4 +2 N1014AC2 +2 N1014AC4 +5 N1100AC2 +5 N1100AC4 
  +4 N1102AC2 +4 N1102AC4 +1 N1200AC2 +1 N1200AC4 +1 N1201AC2 +1 N1201AC4 >= +50 
 ACMILES: +86441 N1003AC1 +86441 N1003AC2 +86441 N1003AC3 +86441 N1003AC4 +56155 N1005AC1 +56155 N1005AC2 
  +56155 N1005AC3 +56155 N1005AC4 +87605 N1011AC1 +87605 N1011AC2 +87605 N1011AC3 +87605 N1011AC4 
  +91637 N1013AC2 +91637 N1013AC4 +41715 N1015AC2 +41715 N1015AC4 +73080 N1017AC2 +73080 N1017AC4 
  +73165 N1019AC2 +73165 N1019AC4 +31450 N1021AC1 +31450 N1021AC2 +31450 N1021AC3 +31450 N1021AC4 
  +3145 N1002AC1 +3145 N1002AC2 +3145 N1002AC3 +3145 N1002AC4 +7308 N1004AC2 +7308 N1004AC4 
  +87605 N1006AC1 +87605 N1006AC2 +87605 N1006AC3 +87605 N1006AC4 +91637 N1008AC2 +91637 N1008AC4 
  +91722 N1010AC2 +91722 N1010AC4 +41715 N1012AC2 +41715 N1012AC4 +60273 N1014AC2 +60273 N1014AC4 
  +179328 N1100AC2 +179328 N1100AC4 +179242 N1102AC2 +179242 N1102AC4 +18557 N1200AC2 +18557 N1200AC4 
  +18557 N1201AC2 +18557 N1201AC4 >= +0 
 ASMILES: +35181396 N1003AC1 +11323743 N1003AC2 +22855299 N1005AC1 +7356374 N1005AC2 +35655371 N1011AC1 
  +11476299 N1011AC2 +12004449 N1013AC2 +5464705 N1015AC2 +9573444 N1017AC2 +9584630 N1019AC2 +12800075 N1021AC1 
  +4119926 N1021AC2 +12800075 N1002AC1 +4119926 N1002AC2 +9573444 N1004AC2 +35655371 N1006AC1 +11476299 N1006AC2 
  +12004449 N1008AC2 +12015637 N1010AC2 +5464705 N1012AC2 +7895706 N1014AC2 +23491937 N1100AC2 +23480756 N1102AC2 
  +2431007 N1200AC2 +2431007 N1201AC2 >= +0 
 PASSNGRS: +1 PBOSORD0 +1 PBOSORD1 +1 PBOSORD2 +1 PBOSORD3 +1 PBOSORD4 +1 PBOSLGA0 +1 PBOSLGA1 +1 PBOSLGA2 
  +1 PBOSLGA3 +1 PBOSCLE0 +1 PBOSCLE1 +1 PBOSCLE2 +1 PBOSCLE3 +1 PORDBOS0 +1 PORDBOS1 +1 PORDBOS2 +1 PORDBOS3 
  +1 PORDBOS4 +1 PORDLGA0 +1 PORDLGA1 +1 PORDLGA2 +1 PORDLGA3 +1 PORDCLE0 +1 PORDCLE1 +1 PORDCLE2 +1 PORDCLE3 
  +1 PLGABOS0 +1 PLGABOS1 +1 PLGABOS2 +1 PLGABOS3 +1 PLGABOS4 +1 PLGABOS5 +1 PLGAORD0 +1 PLGAORD1 +1 PLGAORD2 
  +1 PLGAORD3 +1 PLGACLE0 +1 PLGACLE1 +1 PLGACLE2 +1 PCLEBOS0 +1 PCLEBOS1 +1 PCLEBOS2 +1 PCLEBOS3 +1 PCLEBOS4 
  +1 PCLEORD0 +1 PCLEORD1 +1 PCLEORD2 +1 PCLEORD3 +1 PCLEORD4 +1 PCLELGA0 +1 PCLELGA1 +1 PCLELGA2 +1 PCLELGA3 
  >= +9431 
 RPMILES: +86441 PBOSORD0 +87605 PBOSORD1 +91637 PBOSORD2 +91722 PBOSORD3 +87605 PBOSORD4 +18557 PBOSLGA0 
  +18557 PBOSLGA1 +160685 PBOSLGA2 +18557 PBOSLGA3 +56155 PBOSCLE0 +56155 PBOSCLE1 +60273 PBOSCLE2 
  +56155 PBOSCLE3 +87605 PORDBOS0 +91637 PORDBOS1 +91722 PORDBOS2 +87605 PORDBOS3 +91637 PORDBOS4 
  +73080 PORDLGA0 +73080 PORDLGA1 +73165 PORDLGA2 +73080 PORDLGA3 +31450 PORDCLE0 +31450 PORDCLE1 
  +31450 PORDCLE2 +31450 PORDCLE3 +18557 PLGABOS0 +18557 PLGABOS1 +18557 PLGABOS2 +160770 PLGABOS3 
  +18557 PLGABOS4 +18557 PLGABOS5 +73080 PLGAORD0 +73080 PLGAORD1 +73165 PLGAORD2 +73165 PLGAORD3 
  +41715 PLGACLE0 +41715 PLGACLE1 +41715 PLGACLE2 +56155 PCLEBOS0 +60273 PCLEBOS1 +60273 PCLEBOS2 
  +56155 PCLEBOS3 +123086 PCLEBOS4 +31450 PCLEORD0 +31450 PCLEORD1 +31450 PCLEORD2 +31450 PCLEORD3 
  +31450 PCLEORD4 +41715 PCLELGA0 +41715 PCLELGA1 +41715 PCLELGA2 +104529 PCLELGA3 >= +0 
 LFRPMASM: -86441 PBOSORD0 -87605 PBOSORD1 -91637 PBOSORD2 -91722 PBOSORD3 -87605 PBOSORD4 -18557 PBOSLGA0 
  -18557 PBOSLGA1 -160685 PBOSLGA2 -18557 PBOSLGA3 -56155 PBOSCLE0 -56155 PBOSCLE1 -60273 PBOSCLE2 
  -56155 PBOSCLE3 -87605 PORDBOS0 -91637 PORDBOS1 -91722 PORDBOS2 -87605 PORDBOS3 -91637 PORDBOS4 
  -73080 PORDLGA0 -73080 PORDLGA1 -73165 PORDLGA2 -73080 PORDLGA3 -31450 PORDCLE0 -31450 PORDCLE1 
  -31450 PORDCLE2 -31450 PORDCLE3 -18557 PLGABOS0 -18557 PLGABOS1 -18557 PLGABOS2 -160770 PLGABOS3 
  -18557 PLGABOS4 -18557 PLGABOS5 -73080 PLGAORD0 -73080 PLGAORD1 -73165 PLGAORD2 -73165 PLGAORD3 
  -41715 PLGACLE0 -41715 PLGACLE1 -41715 PLGACLE2 -56155 PCLEBOS0 -60273 PCLEBOS1 -60273 PCLEBOS2 
  -56155 PCLEBOS3 -123086 PCLEBOS4 -31450 PCLEORD0 -31450 PCLEORD1 -31450 PCLEORD2 -31450 PCLEORD3 
  -314500 PCLEORD4 -417150 PCLELGA0 -417150 PCLELGA1 -417150 PCLELGA2 -1045299 PCLELGA3 +211088376 N1003AC1 
  +67942458 N1003AC2 +137131794 N1005AC1 +44138244 N1005AC2 +213932226 N1011AC1 +68857794 N1011AC2 
  +72026694 N1013AC2 +32788230 N1015AC2 +57440664 N1017AC2 +57507780 N1019AC2 +76800450 N1021AC1 +24719556 N1021AC2 
  +76800450 N1002AC1 +24719556 N1002AC2 +57440664 N1004AC2 +213932226 N1006AC1 +68857794 N1006AC2 
  +72026694 N1008AC2 +72093822 N1010AC2 +32788230 N1012AC2 +47374236 N1014AC2 +140951622 N1100AC2 
  +140884536 N1102AC2 +14586042 N1200AC2 +14586042 N1201AC2 >= +0 
 ATONMILE: +2593224 N1003AC1 +3457631 N1003AC3 +1296612 N1003AC4 +1684665 N1005AC1 +2246220 N1005AC3 
  +842333 N1005AC4 +2628160 N1011AC1 +3504214 N1011AC3 +1314080 N1011AC4 +1374556 N1013AC4 +625729 N1015AC4 
  +1096196 N1017AC4 +1097477 N1019AC4 +943495 N1021AC1 +1257993 N1021AC3 +471746 N1021AC4 +943495 N1002AC1 
  +1257993 N1002AC3 +471746 N1002AC4 +1096196 N1004AC4 +2628160 N1006AC1 +3504214 N1006AC3 +1314080 N1006AC4 
  +1374556 N1008AC4 +1375836 N1010AC4 +625729 N1012AC4 +904088 N1014AC4 +2689915 N1100AC4 +2688635 N1102AC4 
  +27836 N1200AC4 +27836 N1201AC4 >= +0 
 RTONMILE: +86441 BBOSORD0 +87605 BBOSORD1 +56155 BBOSCLE0 +56155 BBOSCLE1 +87605 BORDBOS0 +86441 CBOSORD0 
  +87605 CBOSORD1 +91637 CBOSORD2 +91722 CBOSORD3 +87605 CBOSORD4 +56155 CBOSCLE0 +56155 CBOSCLE1 
  +60273 CBOSCLE2 +56155 CBOSCLE3 +87605 CORDBOS0 +91637 CORDBOS1 +91722 CORDBOS2 +87605 CORDBOS3 
  +91637 CORDBOS4 +73080 CORDLGA0 +73080 CORDLGA1 +73165 CORDLGA2 +73080 CORDLGA3 +73080 CLGAORD0 
  +73080 CLGAORD1 +73165 CLGAORD2 +73165 CLGAORD3 +41715 CLGACLE0 +41715 CLGACLE1 +41715 CLGACLE2 
  +41715 CCLELGA0 +41715 CCLELGA1 +41715 CCLELGA2 +104529 CCLELGA3 >= +0 
 LFTNMILE: -86441 BBOSORD0 -87605 BBOSORD1 -56155 BBOSCLE0 -56155 BBOSCLE1 -87605 BORDBOS0 -86441 CBOSORD0 
  -87605 CBOSORD1 -91637 CBOSORD2 -91722 CBOSORD3 -87605 CBOSORD4 -56155 CBOSCLE0 -56155 CBOSCLE1 
  -60273 CBOSCLE2 -56155 CBOSCLE3 -87605 CORDBOS0 -91637 CORDBOS1 -91722 CORDBOS2 -87605 CORDBOS3 
  -91637 CORDBOS4 -73080 CORDLGA0 -73080 CORDLGA1 -73165 CORDLGA2 -73080 CORDLGA3 -73080 CLGAORD0 
  -73080 CLGAORD1 -73165 CLGAORD2 -73165 CLGAORD3 -41715 CLGACLE0 -41715 CLGACLE1 -41715 CLGACLE2 
  -417150 CCLELGA0 -417150 CCLELGA1 -417150 CCLELGA2 -1045299 CCLELGA3 +12966120 N1003AC1 +17288155 N1003AC3 
  +6483060 N1003AC4 +8423325 N1005AC1 +11231100 N1005AC3 +4211665 N1005AC4 +13140800 N1011AC1 +17521070 N1011AC3 
  +6570400 N1011AC4 +6872780 N1013AC4 +3128645 N1015AC4 +5480980 N1017AC4 +5487385 N1019AC4 +4717475 N1021AC1 
  +6289965 N1021AC3 +2358735 N1021AC4 +4717475 N1002AC1 +6289965 N1002AC3 +2358735 N1002AC4 +5480980 N1004AC4 
  +13140800 N1006AC1 +17521070 N1006AC3 +6570400 N1006AC4 +6872780 N1008AC4 +6879180 N1010AC4 +3128645 N1012AC4 
  +4520445 N1014AC4 +13449575 N1100AC4 +13443175 N1102AC4 +1391800 N1200AC4 +1391800 N1201AC4 >= +0 
 FLAVa1: +100000 GRDTIMO1 +100000 GRDTIMN1 +232729 N1003AC1 +100000000 N1005AC1 +2500000 N1011AC1 +134295 N1021AC1 +134295 N1002AC1 
  +312813 N1006AC1 = +3000000 
 FLAVa2: +100000 GRDTIMO2 +100000 GRDTIMN2 +210966 N1003AC2 +200000000 N1005AC2 +2500000 N1011AC2 +265943 N1013AC2 +125093 N1015AC2 
  +185313 N1017AC2 +230477 N1019AC2 +105384 N1021AC2 +105384 N1002AC2 +185313 N1004AC2 +258202 N1006AC2 
  +265943 N1008AC2 +311107 N1010AC2 +125093 N1012AC2 +205723 N1014AC2 +569309 N1100AC2 +524145 N1102AC2 
  +8063 N1200AC2 +8063 N1201AC2 = +450000 
 FLAVa3: +100000 GRDTIMN3 +210966 N1003AC3 +300000000 N1005AC3 +2600000 N1011AC3 +105384 N1021AC3 +105384 N1002AC3 
  +258202 N1006AC3 = +0 
 FLAVa4: +100000 GRDTIMN4 +210966 N1003AC4 +150000000 N1005AC4 +2700000 N1011AC4 +265943 N1013AC4 +125093 N1015AC4 
  +185313 N1017AC4 +230477 N1019AC4 +105384 N1021AC4 +105384 N1002AC4 +185313 N1004AC4 +258202 N1006AC4 
  +265943 N1008AC4 +311107 N1010AC4 +125093 N1012AC4 +205723 N1014AC4 +569309 N1100AC4 +524145 N1102AC4 
  +8063 N1200AC4 +8063 N1201AC4 = +0 
 LF1003S1: -1 PBOSORD0 +305 N1003AC1 +98 N1003AC2 >= +0 
 LF1003B1: -1 BBOSORD0 +12 N1003AC1 >= +0 
 LF1003C1: -100 CBOSORD0 +3000 N1003AC3 +1125 N1003AC4 >= +0 
 LF1005S1: -1 PBOSCLE0 +305 N1005AC1 +98 N1005AC2 >= +0 
 LF1005B1: -1 BBOSCLE0 +12 N1005AC1 >= +0 
 LF1005C1: -100 CBOSCLE0 +3000 N1005AC3 +1125 N1005AC4 >= +0 
 LF1011S1: -1 PBOSORD1 -1 PBOSCLE1 +305 N1011AC1 +98 N1011AC2 >= +0 
 LF1011S2: -1 PBOSORD1 -1 PCLEORD0 +305 N1011AC1 +98 N1011AC2 >= +0 
 LF1011B1: -1 BBOSORD1 -1 BBOSCLE1 +12 N1011AC1 >= +0 
 LF1011B2: -1 BBOSORD1 +12 N1011AC1 >= +0 
 LF1011C1: -100 CBOSORD1 -100 CBOSCLE1 +3000 N1011AC3 +1125 N1011AC4 >= +0 
 LF1011C2: -100 CBOSORD1 +3000 N1011AC3 +1125 N1011AC4 >= +0 
 LF1013S1: -1 PBOSORD2 -1 PBOSLGA0 +98 N1013AC2 >= +0 
 LF1013S2: -1 PBOSORD2 -1 PLGAORD0 +98 N1013AC2 >= +0 
 LF1013B1: >= +0 
 LF1013B2: >= +0 
 LF1013C1: -100 CBOSORD2 +1125 N1013AC4 >= +0 
 LF1013C2: -100 CBOSORD2 -100 CLGAORD0 +1125 N1013AC4 >= +0 
 LF1015S1: -1 PLGACLE0 +98 N1015AC2 >= +0 
 LF1015B1: >= +0 
 LF1015C1: -100 CLGACLE0 +1125 N1015AC4 >= +0 
 LF1017S1: -1 PLGAORD1 +98 N1017AC2 >= +0 
 LF1017B1: >= +0 
 LF1017C1: -100 CLGAORD1 +1125 N1017AC4 >= +0 
 LF1019S1: -1 PLGAORD2 -1 PLGACLE1 +98 N1019AC2 >= +0 
 LF1019S2: -1 PLGAORD2 -1 PCLEORD1 +98 N1019AC2 >= +0 
 LF1019B1: >= +0 
 LF1019B2: >= +0 
 LF1019C1: -100 CLGAORD2 -100 CLGACLE1 +1125 N1019AC4 >= +0 
 LF1019C2: -100 CLGAORD2 +1125 N1019AC4 >= +0 
 LF1021S1: -1 PCLEORD2 +305 N1021AC1 +98 N1021AC2 >= +0 
 LF1021B1: +12 N1021AC1 >= +0 
 LF1021C1: +3000 N1021AC3 +1125 N1021AC4 >= +0 
 LF1002S1: -1 PORDCLE0 +305 N1002AC1 +98 N1002AC2 >= +0 
 LF1002B1: +12 N1002AC1 >= +0 
 LF1002C1: +3000 N1002AC3 +1125 N1002AC4 >= +0 
 LF1004S1: -1 PORDLGA0 +98 N1004AC2 >= +0 
 LF1004B1: >= +0 
 LF1004C1: -100 CORDLGA0 +1125 N1004AC4 >= +0 
 LF1006S1: -1 PORDBOS0 -1 PORDCLE1 +305 N1006AC1 +98 N1006AC2 >= +0 
 LF1006S2: -1 PORDBOS0 -1 PCLEBOS0 +305 N1006AC1 +98 N1006AC2 >= +0 
 LF1006B1: -1 BORDBOS0 +12 N1006AC1 >= +0 
 LF1006B2: -1 BORDBOS0 +12 N1006AC1 >= +0 
 LF1006C1: -100 CORDBOS0 +3000 N1006AC3 +1125 N1006AC4 >= +0 
 LF1006C2: -100 CORDBOS0 +3000 N1006AC3 +1125 N1006AC4 >= +0 
 LF1008S1: -1 PORDBOS1 -1 PORDLGA1 +98 N1008AC2 >= +0 
 LF1008S2: -1 PORDBOS1 -1 PLGABOS0 +98 N1008AC2 >= +0 
 LF1008B1: >= +0 
 LF1008B2: >= +0 
 LF1008C1: -100 CORDBOS1 -100 CORDLGA1 +1125 N1008AC4 >= +0 
 LF1008C2: -100 CORDBOS1 +1125 N1008AC4 >= +0 
 LF1010S1: -1 PORDBOS2 -1 PORDLGA2 -1 PORDCLE2 +98 N1010AC2 >= +0 
 LF1010S2: -1 PORDBOS2 -1 PORDLGA2 -1 PCLEBOS1 -1 PCLELGA0 +98 N1010AC2 >= +0 
 LF1010S3: -1 PORDBOS2 -1 PLGABOS1 -1 PCLEBOS1 +98 N1010AC2 >= +0 
 LF1010B1: >= +0 
 LF1010B2: >= +0 
 LF1010B3: >= +0 
 LF1010C1: -100 CORDBOS2 -100 CORDLGA2 +1125 N1010AC4 >= +0 
 LF1010C2: -100 CORDBOS2 -100 CORDLGA2 -100 CCLELGA0 +1125 N1010AC4 >= +0 
 LF1010C3: -100 CORDBOS2 +1125 N1010AC4 >= +0 
 LF1012S1: -1 PCLELGA1 +98 N1012AC2 >= +0 
 LF1012B1: >= +0 
 LF1012C1: -100 CCLELGA1 +1125 N1012AC4 >= +0 
 LF1014S1: -1 PCLEBOS2 -1 PCLELGA2 +98 N1014AC2 >= +0 
 LF1014S2: -1 PLGABOS2 -1 PCLEBOS2 +98 N1014AC2 >= +0 
 LF1014B1: >= +0 
 LF1014B2: >= +0 
 LF1014C1: -100 CCLELGA2 +1125 N1014AC4 >= +0 
 LF1014C2: +1125 N1014AC4 >= +0 
 LF1100S1: -1 PBOSORD3 -1 PBOSLGA1 -1 PBOSCLE2 +98 N1100AC2 >= +0 
 LF1100S2: -1 PBOSORD3 -1 PBOSCLE2 -1 PLGABOS3 -1 PLGAORD3 -1 PLGACLE2 +98 N1100AC2 >= +0 
 LF1100S3: -1 PBOSORD3 -1 PLGABOS3 -1 PLGAORD3 -1 PCLEORD3 +98 N1100AC2 >= +0 
 LF1100S4: -1 PORDBOS3 -1 PORDCLE3 -1 PLGABOS3 +98 N1100AC2 >= +0 
 LF1100S5: -1 PORDBOS3 -1 PLGABOS3 -1 PCLEBOS3 +98 N1100AC2 >= +0 
 LF1100B1: >= +0 
 LF1100B2: >= +0 
 LF1100B3: >= +0 
 LF1100B4: >= +0 
 LF1100B5: >= +0 
 LF1100C1: -100 CBOSORD3 -100 CBOSCLE2 +1125 N1100AC4 >= +0 
 LF1100C2: -100 CBOSORD3 -100 CBOSCLE2 -100 CLGAORD3 -100 CLGACLE2 +1125 N1100AC4 >= +0 
 LF1100C3: -100 CBOSORD3 -100 CLGAORD3 +1125 N1100AC4 >= +0 
 LF1100C4: -100 CORDBOS3 +1125 N1100AC4 >= +0 
 LF1100C5: -100 CORDBOS3 +1125 N1100AC4 >= +0 
 LF1102S1: -1 PBOSORD4 -1 PBOSLGA2 -1 PBOSCLE3 +98 N1102AC2 >= +0 
 LF1102S2: -1 PBOSORD4 -1 PBOSLGA2 -1 PCLEBOS4 -1 PCLEORD4 -1 PCLELGA3 +98 N1102AC2 >= +0 
 LF1102S3: -1 PBOSLGA2 -1 PORDBOS4 -1 PORDLGA3 -1 PCLEBOS4 -1 PCLELGA3 +98 N1102AC2 >= +0 
 LF1102S4: -1 PORDBOS4 -1 PLGABOS4 -1 PCLEBOS4 +98 N1102AC2 >= +0 
 LF1102B1: >= +0 
 LF1102B2: >= +0 
 LF1102B3: >= +0 
 LF1102B4: >= +0 
 LF1102C1: -100 CBOSORD4 -100 CBOSCLE3 +1125 N1102AC4 >= +0 
 LF1102C2: -100 CBOSORD4 -100 CCLELGA3 +1125 N1102AC4 >= +0 
 LF1102C3: -100 CORDBOS4 -100 CORDLGA3 -100 CCLELGA3 +1125 N1102AC4 >= +0 
 LF1102C4: -100 CORDBOS4 +1125 N1102AC4 >= +0 
 LF1200S1: -1 PBOSLGA3 +98 N1200AC2 >= +0 
 LF1200B1: >= +0 
 LF1200C1: +1125 N1200AC4 >= +0 
 LF1201S1: -1 PLGABOS5 +98 N1201AC2 >= +0 
 LF1201B1: >= +0 
 LF1201C1: +1125 N1201AC4 >= +0 
 NOPTCLE0: +1 N1005AC1 +1 N1005AC2 +1 N1005AC3 +1 N1005AC4 +2 N1011AC1 +2 N1011AC2 +2 N1011AC3 +2 N1011AC4 
  +1 N1015AC2 +1 N1015AC4 +2 N1019AC2 +2 N1019AC4 +1 N1021AC1 +1 N1021AC2 +1 N1021AC3 +1 N1021AC4 +1 N1002AC1 
  +1 N1002AC2 +1 N1002AC3 +1 N1002AC4 +2 N1006AC1 +2 N1006AC2 +2 N1006AC3 +2 N1006AC4 +2 N1010AC2 +2 N1010AC4 
  +1 N1012AC2 +1 N1012AC4 +1 N1014AC2 +1 N1014AC4 +4 N1100AC2 +4 N1100AC4 +2 N1102AC2 +2 N1102AC4 >= +24 
 CONTBOS1: +1 N1003AC1 +1 N1005AC1 +1 N1011AC1 -1 N1006AC1 >= +0 
 CONTBOS2: +1 N1003AC2 +1 N1005AC2 +1 N1011AC2 +1 N1013AC2 -1 N1006AC2 -1 N1008AC2 -1 N1010AC2 -1 N1014AC2 
  +1 N1200AC2 -1 N1201AC2 >= +0 
 CONTBOS3: +1 N1003AC3 +1 N1005AC3 +1 N1011AC3 -1 N1006AC3 >= +0 
 CONTBOS4: +1 N1003AC4 +1 N1005AC4 +1 N1011AC4 +1 N1013AC4 -1 N1006AC4 -1 N1008AC4 -1 N1010AC4 -1 N1014AC4 
  +1 N1200AC4 -1 N1201AC4 >= +0 
 CONTORD1: -1 N1003AC1 -1 N1011AC1 -1 N1021AC1 +1 N1002AC1 +1 N1006AC1 >= +0 
 CONTORD2: -1 N1003AC2 -1 N1011AC2 -1 N1013AC2 -1 N1017AC2 -1 N1019AC2 -1 N1021AC2 +1 N1002AC2 +1 N1004AC2 
  +1 N1006AC2 +1 N1008AC2 +1 N1010AC2 >= +0 
 CONTORD3: -1 N1003AC3 -1 N1011AC3 -1 N1021AC3 +1 N1002AC3 +1 N1006AC3 >= +0 
 CONTORD4: -1 N1003AC4 -1 N1011AC4 -1 N1013AC4 -1 N1017AC4 -1 N1019AC4 -1 N1021AC4 +1 N1002AC4 +1 N1004AC4 
  +1 N1006AC4 +1 N1008AC4 +1 N1010AC4 >= +0 
 CONTLGA2: +1 N1015AC2 +1 N1017AC2 +1 N1019AC2 -1 N1004AC2 -1 N1012AC2 -1 N1200AC2 +1 N1201AC2 >= +0 
 CONTLGA4: +1 N1015AC4 +1 N1017AC4 +1 N1019AC4 -1 N1004AC4 -1 N1012AC4 -1 N1200AC4 +1 N1201AC4 >= +0 
 CONTCLE1: -1 N1005AC1 +1 N1021AC1 -1 N1002AC1 >= +0 
 CONTCLE2: -1 N1005AC2 -1 N1015AC2 +1 N1021AC2 -1 N1002AC2 +1 N1012AC2 +1 N1014AC2 >= +0 
 CONTCLE3: -1 N1005AC3 +1 N1021AC3 -1 N1002AC3 >= +0 
 CONTCLE4: -1 N1005AC4 -1 N1015AC4 +1 N1021AC4 -1 N1002AC4 +1 N1012AC4 +1 N1014AC4 >= +0 
 DMBOSORD: +1 PBOSORD0 +1 PBOSORD1 +1 PBOSORD2 +1 PBOSORD3 +1 PBOSORD4 -1 RgDMBOSORD = +302 
 DMBOSLGA: +1 PBOSLGA0 +1 PBOSLGA1 +1 PBOSLGA2 +1 PBOSLGA3 -1 RgDMBOSLGA = +2352 
 DMBOSCLE: +1 PBOSCLE0 +1 PBOSCLE1 +1 PBOSCLE2 +1 PBOSCLE3 -1 RgDMBOSCLE = +142 
 DMORDBOS: +1 PORDBOS0 +1 PORDBOS1 +1 PORDBOS2 +1 PORDBOS3 +1 PORDBOS4 -1 RgDMORDBOS = +302 
 DMORDLGA: +1 PORDLGA0 +1 PORDLGA1 +1 PORDLGA2 +1 PORDLGA3 -1 RgDMORDLGA = +515 
 DMORDCLE: +1 PORDCLE0 +1 PORDCLE1 +1 PORDCLE2 +1 PORDCLE3 -1 RgDMORDCLE = +619 
 DMLGABOS: +1 PLGABOS0 +1 PLGABOS1 +1 PLGABOS2 +1 PLGABOS3 +1 PLGABOS4 +1 PLGABOS5 -1 RgDMLGABOS = +2743 
 DMLGAORD: +1 PLGAORD0 +1 PLGAORD1 +1 PLGAORD2 +1 PLGAORD3 -1 RgDMLGAORD = +712 
 DMLGACLE: +1 PLGACLE0 +1 PLGACLE1 +1 PLGACLE2 -1 RgDMLGACLE = +517 
 DMCLEBOS: +1 PCLEBOS0 +1 PCLEBOS1 +1 PCLEBOS2 +1 PCLEBOS3 +1 PCLEBOS4 -1 RgDMCLEBOS = +131 
 DMCLEORD: +1 PCLEORD0 +1 PCLEORD1 +1 PCLEORD2 +1 PCLEORD3 +1 PCLEORD4 -1 RgDMCLEORD = +712 
 DMCLELGA: +1 PCLELGA0 +1 PCLELGA1 +1 PCLELGA2 +1 PCLELGA3 -1 RgDMCLELGA = +409 
 MSBOSORD: +1 N1003AC1 +1 N1003AC2 +1 N1011AC1 +1 N1011AC2 +1 N1013AC2 +1 N1100AC2 +1 N1102AC2 >= +3 
 MSBOSLGA: +1 N1013AC2 +1 N1100AC2 +1 N1102AC2 +1 N1200AC2 >= +7 
 MSBOSCLE: +1 N1005AC1 +1 N1005AC2 +1 N1011AC1 +1 N1011AC2 +1 N1100AC2 +1 N1102AC2 >= +1 
 MSORDBOS: +1 N1006AC1 +1 N1006AC2 +1 N1008AC2 +1 N1010AC2 +1 N1100AC2 +1 N1102AC2 >= +3 
 MSORDLGA: +1 N1004AC2 +1 N1008AC2 +1 N1010AC2 +1 N1102AC2 >= +4 
 MSORDCLE: +1 N1002AC1 +1 N1002AC2 +1 N1006AC1 +1 N1006AC2 +1 N1010AC2 +1 N1100AC2 >= +5 
 MSLGABOS: +1 N1008AC2 +1 N1010AC2 +1 N1014AC2 +1 N1100AC2 +1 N1102AC2 +1 N1201AC2 >= +7 
 MSLGAORD: +1 N1013AC2 +1 N1017AC2 +1 N1019AC2 +1 N1100AC2 >= +5 
 MSLGACLE: +1 N1015AC2 +1 N1019AC2 +1 N1100AC2 >= +4 
 MSCLEBOS: +1 N1006AC1 +1 N1006AC2 +1 N1010AC2 +1 N1014AC2 +1 N1100AC2 +1 N1102AC2 >= +1 
 MSCLEORD: +1 N1011AC1 +1 N1011AC2 +1 N1019AC2 +1 N1021AC1 +1 N1021AC2 +1 N1100AC2 +1 N1102AC2 >= +6 
 MSCLELGA: +1 N1010AC2 +1 N1012AC2 +1 N1014AC2 +1 N1102AC2 >= +3 
 DCBOSORD: +1 BBOSORD0 +1 BBOSORD1 +1 CBOSORD0 +1 CBOSORD1 +1 CBOSORD2 +1 CBOSORD3 +1 CBOSORD4 -1 RgDCBOSORD 
  = +12 
 DCBOSCLE: +1 BBOSCLE0 +1 BBOSCLE1 +1 CBOSCLE0 +1 CBOSCLE1 +1 CBOSCLE2 +1 CBOSCLE3 -1 RgDCBOSCLE = +16 
 DCORDBOS: +1 BORDBOS0 +1 CORDBOS0 +1 CORDBOS1 +1 CORDBOS2 +1 CORDBOS3 +1 CORDBOS4 -1 RgDCORDBOS = +24 
 DCORDLGA: +1 CORDLGA0 +1 CORDLGA1 +1 CORDLGA2 +1 CORDLGA3 -1 RgDCORDLGA = +13 
 DCLGAORD: +1 CLGAORD0 +1 CLGAORD1 +1 CLGAORD2 +1 CLGAORD3 -1 RgDCLGAORD = +45 
 DCLGACLE: +1 CLGACLE0 +1 CLGACLE1 +1 CLGACLE2 -1 RgDCLGACLE = +16 
 DCCLELGA: +1 CCLELGA0 +1 CCLELGA1 +1 CCLELGA2 +1 CCLELGA3 -1 RgDCCLELGA = +5 
 MCORDBOS: +1 N1006AC3 +1 N1006AC4 +1 N1008AC4 +1 N1010AC4 +1 N1100AC4 +1 N1102AC4 >= +1 
 MCLGAORD: +1 N1013AC4 +1 N1017AC4 +1 N1019AC4 +1 N1100AC4 >= +2 
Bounds 
 -100 <= GRDTIMN1 <= 0 
 -90 <= GRDTIMN2 <= 0 
 -45 <= GRDTIMN3 <= 0 
 -45 <= GRDTIMN4 <= 0 
 0 <= N1003AC1 <= 7 
 0 <= N1003AC2 <= 7 
 0 <= N1003AC3 <= 2 
 0 <= N1003AC4 <= 2 
 0 <= N1005AC1 <= 7 
 0 <= N1005AC2 <= 7 
 0 <= N1005AC3 <= 2 
 0 <= N1005AC4 <= 2 
 0 <= N1011AC1 <= 7 
 0 <= N1011AC2 <= 7 
 0 <= N1011AC3 <= 2 
 0 <= N1011AC4 <= 2 
 0 <= N1013AC2 <= 14 
 0 <= N1013AC4 <= 2 
 0 <= N1015AC2 <= 7 
 0 <= N1015AC4 <= 2 
 0 <= N1017AC2 <= 7 
 0 <= N1017AC4 <= 2 
 0 <= N1019AC2 <= 7 
 0 <= N1019AC4 <= 2 
 0 <= N1021AC1 <= 7 
 0 <= N1021AC2 <= 7 
 0 <= N1021AC3 <= 2 
 0 <= N1021AC4 <= 2 
 0 <= N1002AC1 <= 7 
 0 <= N1002AC2 <= 7 
 0 <= N1002AC3 <= 2 
 0 <= N1002AC4 <= 2 
 0 <= N1004AC2 <= 7 
 0 <= N1004AC4 <= 2 
 0 <= N1006AC1 <= 7 
 0 <= N1006AC2 <= 7 
 0 <= N1006AC3 <= 2 
 0 <= N1006AC4 <= 2 
 0 <= N1008AC2 <= 14 
 0 <= N1008AC4 <= 2 
 0 <= N1010AC2 <= 14 
 0 <= N1010AC4 <= 2 
 0 <= N1012AC2 <= 7 
 0 <= N1012AC4 <= 2 
 0 <= N1014AC2 <= 14 
 0 <= N1014AC4 <= 2 
 0 <= N1100AC2 <= 7 
 0 <= N1100AC4 <= 7 
 0 <= N1102AC2 <= 7 
 0 <= N1102AC4 <= 7 
 0 <= N1200AC2 <= 14 
 0 <= N1200AC4 <= 7 
 0 <= N1201AC2 <= 14 
 0 <= N1201AC4 <= 7 
 -61 <= RgDMBOSORD <= 0 
 -471 <= RgDMBOSLGA <= 0 
 -29 <= RgDMBOSCLE <= 0 
 -61 <= RgDMORDBOS <= 0 
 -103 <= RgDMORDLGA <= 0 
 -124 <= RgDMORDCLE <= 0 
 -549 <= RgDMLGABOS <= 0 
 -143 <= RgDMLGAORD <= 0 
 -104 <= RgDMLGACLE <= 0 
 -27 <= RgDMCLEBOS <= 0 
 -143 <= RgDMCLEORD <= 0 
 -82 <= RgDMCLELGA <= 0 
 -12 <= RgDCBOSORD <= 0 
 -32 <= RgDCBOSCLE <= 0 
 -48 <= RgDCORDBOS <= 0 
 -26 <= RgDCORDLGA <= 0 
 -9 <= RgDCLGAORD <= 0 
 -32 <= RgDCLGACLE <= 0 
 -5 <= RgDCCLELGA <= 0 
End 
